ICHARG= 0
ISTART = 1

ISMEAR= 0
SIGMA = 0.05
NCORE= 8
LORBIT= 10
ISPIN= 1

# relax
NSW = 100
IBRION= 1
ISIF= 2
EDIFFG= -0.01

# electronic degrees
ENCUT= 400
NELM= 60 
LREAL = A
PREC  = N

# mixing
ALGO = F
MAXMIX = 40
LMAXMIX  = 4
AMIX = 0.4
BMIX = 1.0
AMIX_MAG = 0.4

# pbeu
LDAU         =   .TRUE.
LDAUTYPE     =   2
LDAUL        =   2   -1
LDAUU        =   4    0
LDAUJ        =   0.1  0
LDAUPRINT    =   2

# write files
LWAVE = .FALSE.
LCHARG = .TRUE.
