TiO2(110) 6x3                           
   1.00000000000000     
    17.8080654144000015    0.0000000000000000    0.0000000000000000
     0.0000000000000000   19.7737498283999997    0.0000000000000000
     0.0000000000000000    0.0000000000000000   39.5474996567999995
   O    Ti
   432   216
Selective dynamics
Direct
  0.9999999719000030  0.0000000912000004  0.7472186343599603   T   T   T
  0.1666666385999989  0.0000000912000004  0.7472186343599603   T   T   T
  0.3333333052000000  0.0000000912000004  0.7472186343599603   T   T   T
  0.4999999719000030  0.0000000912000004  0.7472186343599603   T   T   T
  0.6666666385999989  0.0000000912000004  0.7472186343599603   T   T   T
  0.8333333052000000  0.0000000912000004  0.7472186343599603   T   T   T
  0.9999999719000030  0.3333334244999975  0.7472186343599603   T   T   T
  0.1666666385999989  0.3333334244999975  0.7472186343599603   T   T   T
  0.3333333052000000  0.3333334244999975  0.7472186343599603   T   T   T
  0.4999999719000030  0.3333334244999975  0.7472186343599603   T   T   T
  0.6666666385999989  0.3333334244999975  0.7472186343599603   T   T   T
  0.8333333052000000  0.3333334244999975  0.7472186343599603   T   T   T
  0.9999999719000030  0.6666667579000034  0.7472186343599603   T   T   T
  0.1666666385999989  0.6666667579000034  0.7472186343599603   T   T   T
  0.3333333052000000  0.6666667579000034  0.7472186343599603   T   T   T
  0.4999999719000030  0.6666667579000034  0.7472186343599603   T   T   T
  0.6666666385999989  0.6666667579000034  0.7472186343599603   T   T   T
  0.8333333052000000  0.6666667579000034  0.7472186343599603   T   T   T
  0.0833333105999969  0.1041234552923314  0.7174788344477392   T   T   T
  0.2499999771999981  0.1041234552923314  0.7174788344477392   T   T   T
  0.4166666439000011  0.1041234552923314  0.7174788344477392   T   T   T
  0.5833333105999969  0.1041234552923314  0.7174788344477392   T   T   T
  0.7499999771999981  0.1041234552923314  0.7174788344477392   T   T   T
  0.9166666439000011  0.1041234552923314  0.7174788344477392   T   T   T
  0.0833333094999986  0.2292100777076698  0.7174788355477375   T   T   T
  0.2499999760999998  0.2292100777076698  0.7174788355477375   T   T   T
  0.4166666428000028  0.2292100777076698  0.7174788355477375   T   T   T
  0.5833333094999986  0.2292100777076698  0.7174788355477375   T   T   T
  0.7499999760999998  0.2292100777076698  0.7174788355477375   T   T   T
  0.9166666428000028  0.2292100777076698  0.7174788355477375   T   T   T
  0.0833333105999969  0.4374567885923284  0.7174788344477392   T   T   T
  0.2499999771999981  0.4374567885923284  0.7174788344477392   T   T   T
  0.4166666439000011  0.4374567885923284  0.7174788344477392   T   T   T
  0.5833333105999969  0.4374567885923284  0.7174788344477392   T   T   T
  0.7499999771999981  0.4374567885923284  0.7174788344477392   T   T   T
  0.9166666439000011  0.4374567885923284  0.7174788344477392   T   T   T
  0.0833333094999986  0.5625434110076739  0.7174788355477375   T   T   T
  0.2499999760999998  0.5625434110076739  0.7174788355477375   T   T   T
  0.4166666428000028  0.5625434110076739  0.7174788355477375   T   T   T
  0.5833333094999986  0.5625434110076739  0.7174788355477375   T   T   T
  0.7499999760999998  0.5625434110076739  0.7174788355477375   T   T   T
  0.9166666428000028  0.5625434110076739  0.7174788355477375   T   T   T
  0.0833333105999969  0.7707901219923272  0.7174788344477392   T   T   T
  0.2499999771999981  0.7707901219923272  0.7174788344477392   T   T   T
  0.4166666439000011  0.7707901219923272  0.7174788344477392   T   T   T
  0.5833333105999969  0.7707901219923272  0.7174788344477392   T   T   T
  0.7499999771999981  0.7707901219923272  0.7174788344477392   T   T   T
  0.9166666439000011  0.7707901219923272  0.7174788344477392   T   T   T
  0.0833333094999986  0.8958767444076727  0.7174788355477375   T   T   T
  0.2499999760999998  0.8958767444076727  0.7174788355477375   T   T   T
  0.4166666428000028  0.8958767444076727  0.7174788355477375   T   T   T
  0.5833333094999986  0.8958767444076727  0.7174788355477375   T   T   T
  0.7499999760999998  0.8958767444076727  0.7174788355477375   T   T   T
  0.9166666428000028  0.8958767444076727  0.7174788355477375   T   T   T
  0.9999999854999970  0.0000000336999975  0.6809714829432565   T   T   T
  0.1666666522000000  0.0000000336999975  0.6809714829432565   T   T   T
  0.3333333188000012  0.0000000336999975  0.6809714829432565   T   T   T
  0.4999999854999970  0.0000000336999975  0.6809714829432565   T   T   T
  0.6666666522000000  0.0000000336999975  0.6809714829432565   T   T   T
  0.8333333188000012  0.0000000336999975  0.6809714829432565   T   T   T
  0.9999999854999970  0.3333333670000016  0.6809714829432565   T   T   T
  0.1666666522000000  0.3333333670000016  0.6809714829432565   T   T   T
  0.3333333188000012  0.3333333670000016  0.6809714829432565   T   T   T
  0.4999999854999970  0.3333333670000016  0.6809714829432565   T   T   T
  0.6666666522000000  0.3333333670000016  0.6809714829432565   T   T   T
  0.8333333188000012  0.3333333670000016  0.6809714829432565   T   T   T
  0.9999999854999970  0.6666667004000004  0.6809714829432565   T   T   T
  0.1666666522000000  0.6666667004000004  0.6809714829432565   T   T   T
  0.3333333188000012  0.6666667004000004  0.6809714829432565   T   T   T
  0.4999999854999970  0.6666667004000004  0.6809714829432565   T   T   T
  0.6666666522000000  0.6666667004000004  0.6809714829432565   T   T   T
  0.8333333188000012  0.6666667004000004  0.6809714829432565   T   T   T
  0.9999999846999970  0.1666667588999999  0.6615729667114749   T   T   T
  0.1666666513999999  0.1666667588999999  0.6615729667114749   T   T   T
  0.3333333180000011  0.1666667588999999  0.6615729667114749   T   T   T
  0.4999999846999970  0.1666667588999999  0.6615729667114749   T   T   T
  0.6666666513999999  0.1666667588999999  0.6615729667114749   T   T   T
  0.8333333180000011  0.1666667588999999  0.6615729667114749   T   T   T
  0.9999999846999970  0.5000000922999988  0.6615729667114749   T   T   T
  0.1666666513999999  0.5000000922999988  0.6615729667114749   T   T   T
  0.3333333180000011  0.5000000922999988  0.6615729667114749   T   T   T
  0.4999999846999970  0.5000000922999988  0.6615729667114749   T   T   T
  0.6666666513999999  0.5000000922999988  0.6615729667114749   T   T   T
  0.8333333180000011  0.5000000922999988  0.6615729667114749   T   T   T
  0.9999999846999970  0.8333334256000029  0.6615729667114749   T   T   T
  0.1666666513999999  0.8333334256000029  0.6615729667114749   T   T   T
  0.3333333180000011  0.8333334256000029  0.6615729667114749   T   T   T
  0.4999999846999970  0.8333334256000029  0.6615729667114749   T   T   T
  0.6666666513999999  0.8333334256000029  0.6615729667114749   T   T   T
  0.8333333180000011  0.8333334256000029  0.6615729667114749   T   T   T
  0.0833333213999978  0.9337597058450839  0.6293178601777001   T   T   T
  0.2499999881000008  0.9337597058450839  0.6293178601777001   T   T   T
  0.4166666547999966  0.9337597058450839  0.6293178601777001   T   T   T
  0.5833333213999978  0.9337597058450839  0.6293178601777001   T   T   T
  0.7499999881000008  0.9337597058450839  0.6293178601777001   T   T   T
  0.9166666547999966  0.9337597058450839  0.6293178601777001   T   T   T
  0.0833333210999996  0.0662410905549180  0.6293175056777045   T   T   T
  0.2499999877000008  0.0662410905549180  0.6293175056777045   T   T   T
  0.4166666543999966  0.0662410905549180  0.6293175056777045   T   T   T
  0.5833333210999996  0.0662410905549180  0.6293175056777045   T   T   T
  0.7499999877000008  0.0662410905549180  0.6293175056777045   T   T   T
  0.9166666543999966  0.0662410905549180  0.6293175056777045   T   T   T
  0.0833333213999978  0.2670930392450828  0.6293178601777001   T   T   T
  0.2499999881000008  0.2670930392450828  0.6293178601777001   T   T   T
  0.4166666547999966  0.2670930392450828  0.6293178601777001   T   T   T
  0.5833333213999978  0.2670930392450828  0.6293178601777001   T   T   T
  0.7499999881000008  0.2670930392450828  0.6293178601777001   T   T   T
  0.9166666547999966  0.2670930392450828  0.6293178601777001   T   T   T
  0.0833333210999996  0.3995744239549168  0.6293175056777045   T   T   T
  0.2499999877000008  0.3995744239549168  0.6293175056777045   T   T   T
  0.4166666543999966  0.3995744239549168  0.6293175056777045   T   T   T
  0.5833333210999996  0.3995744239549168  0.6293175056777045   T   T   T
  0.7499999877000008  0.3995744239549168  0.6293175056777045   T   T   T
  0.9166666543999966  0.3995744239549168  0.6293175056777045   T   T   T
  0.0833333213999978  0.6004263725450869  0.6293178601777001   T   T   T
  0.2499999881000008  0.6004263725450869  0.6293178601777001   T   T   T
  0.4166666547999966  0.6004263725450869  0.6293178601777001   T   T   T
  0.5833333213999978  0.6004263725450869  0.6293178601777001   T   T   T
  0.7499999881000008  0.6004263725450869  0.6293178601777001   T   T   T
  0.9166666547999966  0.6004263725450869  0.6293178601777001   T   T   T
  0.0833333210999996  0.7329077572549139  0.6293175056777045   T   T   T
  0.2499999877000008  0.7329077572549139  0.6293175056777045   T   T   T
  0.4166666543999966  0.7329077572549139  0.6293175056777045   T   T   T
  0.5833333210999996  0.7329077572549139  0.6293175056777045   T   T   T
  0.7499999877000008  0.7329077572549139  0.6293175056777045   T   T   T
  0.9166666543999966  0.7329077572549139  0.6293175056777045   T   T   T
  0.9999999891999991  0.1666667300999976  0.5952364645494725   T   T   T
  0.1666666559000021  0.1666667300999976  0.5952364645494725   T   T   T
  0.3333333225000032  0.1666667300999976  0.5952364645494725   T   T   T
  0.4999999891999991  0.1666667300999976  0.5952364645494725   T   T   T
  0.6666666559000021  0.1666667300999976  0.5952364645494725   T   T   T
  0.8333333225000032  0.1666667300999976  0.5952364645494725   T   T   T
  0.9999999891999991  0.5000000635000035  0.5952364645494725   T   T   T
  0.1666666559000021  0.5000000635000035  0.5952364645494725   T   T   T
  0.3333333225000032  0.5000000635000035  0.5952364645494725   T   T   T
  0.4999999891999991  0.5000000635000035  0.5952364645494725   T   T   T
  0.6666666559000021  0.5000000635000035  0.5952364645494725   T   T   T
  0.8333333225000032  0.5000000635000035  0.5952364645494725   T   T   T
  0.9999999891999991  0.8333333968000005  0.5952364645494725   T   T   T
  0.1666666559000021  0.8333333968000005  0.5952364645494725   T   T   T
  0.3333333225000032  0.8333333968000005  0.5952364645494725   T   T   T
  0.4999999891999991  0.8333333968000005  0.5952364645494725   T   T   T
  0.6666666559000021  0.8333333968000005  0.5952364645494725   T   T   T
  0.8333333225000032  0.8333333968000005  0.5952364645494725   T   T   T
  0.0000000336999975  0.0000000344999975  0.5779235631578246   T   T   T
  0.1666667004000004  0.0000000344999975  0.5779235631578246   T   T   T
  0.3333333670000016  0.0000000344999975  0.5779235631578246   T   T   T
  0.5000000336999975  0.0000000344999975  0.5779235631578246   T   T   T
  0.6666667004000004  0.0000000344999975  0.5779235631578246   T   T   T
  0.8333333670000016  0.0000000344999975  0.5779235631578246   T   T   T
  0.0000000336999975  0.3333333678000017  0.5779235631578246   T   T   T
  0.1666667004000004  0.3333333678000017  0.5779235631578246   T   T   T
  0.3333333670000016  0.3333333678000017  0.5779235631578246   T   T   T
  0.5000000336999975  0.3333333678000017  0.5779235631578246   T   T   T
  0.6666667004000004  0.3333333678000017  0.5779235631578246   T   T   T
  0.8333333670000016  0.3333333678000017  0.5779235631578246   T   T   T
  0.0000000336999975  0.6666667010999987  0.5779235631578246   T   T   T
  0.1666667004000004  0.6666667010999987  0.5779235631578246   T   T   T
  0.3333333670000016  0.6666667010999987  0.5779235631578246   T   T   T
  0.5000000336999975  0.6666667010999987  0.5779235631578246   T   T   T
  0.6666667004000004  0.6666667010999987  0.5779235631578246   T   T   T
  0.8333333670000016  0.6666667010999987  0.5779235631578246   T   T   T
  0.0833333471000017  0.1017316080460873  0.5441637638054644   T   T   T
  0.2500000137000029  0.1017316080460873  0.5441637638054644   T   T   T
  0.4166666803999988  0.1017316080460873  0.5441637638054644   T   T   T
  0.5833333471000017  0.1017316080460873  0.5441637638054644   T   T   T
  0.7500000137000029  0.1017316080460873  0.5441637638054644   T   T   T
  0.9166666803999988  0.1017316080460873  0.5441637638054644   T   T   T
  0.0833333469999999  0.2316018216539106  0.5441637824054695   T   T   T
  0.2500000137000029  0.2316018216539106  0.5441637824054695   T   T   T
  0.4166666803999988  0.2316018216539106  0.5441637824054695   T   T   T
  0.5833333469999999  0.2316018216539106  0.5441637824054695   T   T   T
  0.7500000137000029  0.2316018216539106  0.5441637824054695   T   T   T
  0.9166666803999988  0.2316018216539106  0.5441637824054695   T   T   T
  0.0833333471000017  0.4350649413460914  0.5441637638054644   T   T   T
  0.2500000137000029  0.4350649413460914  0.5441637638054644   T   T   T
  0.4166666803999988  0.4350649413460914  0.5441637638054644   T   T   T
  0.5833333471000017  0.4350649413460914  0.5441637638054644   T   T   T
  0.7500000137000029  0.4350649413460914  0.5441637638054644   T   T   T
  0.9166666803999988  0.4350649413460914  0.5441637638054644   T   T   T
  0.0833333469999999  0.5649351549539077  0.5441637824054695   T   T   T
  0.2500000137000029  0.5649351549539077  0.5441637824054695   T   T   T
  0.4166666803999988  0.5649351549539077  0.5441637824054695   T   T   T
  0.5833333469999999  0.5649351549539077  0.5441637824054695   T   T   T
  0.7500000137000029  0.5649351549539077  0.5441637824054695   T   T   T
  0.9166666803999988  0.5649351549539077  0.5441637824054695   T   T   T
  0.0833333471000017  0.7683982746460885  0.5441637638054644   T   T   T
  0.2500000137000029  0.7683982746460885  0.5441637638054644   T   T   T
  0.4166666803999988  0.7683982746460885  0.5441637638054644   T   T   T
  0.5833333471000017  0.7683982746460885  0.5441637638054644   T   T   T
  0.7500000137000029  0.7683982746460885  0.5441637638054644   T   T   T
  0.9166666803999988  0.7683982746460885  0.5441637638054644   T   T   T
  0.0833333469999999  0.8982684882539118  0.5441637824054695   T   T   T
  0.2500000137000029  0.8982684882539118  0.5441637824054695   T   T   T
  0.4166666803999988  0.8982684882539118  0.5441637824054695   T   T   T
  0.5833333469999999  0.8982684882539118  0.5441637824054695   T   T   T
  0.7500000137000029  0.8982684882539118  0.5441637824054695   T   T   T
  0.9166666803999988  0.8982684882539118  0.5441637824054695   T   T   T
  0.9999999742000014  0.0000000405999998  0.5113455097102673   T   T   T
  0.1666666408999973  0.0000000405999998  0.5113455097102673   T   T   T
  0.3333333076000002  0.0000000405999998  0.5113455097102673   T   T   T
  0.4999999742000014  0.0000000405999998  0.5113455097102673   T   T   T
  0.6666666408999973  0.0000000405999998  0.5113455097102673   T   T   T
  0.8333333076000002  0.0000000405999998  0.5113455097102673   T   T   T
  0.9999999742000014  0.3333333739999986  0.5113455097102673   T   T   T
  0.1666666408999973  0.3333333739999986  0.5113455097102673   T   T   T
  0.3333333076000002  0.3333333739999986  0.5113455097102673   T   T   T
  0.4999999742000014  0.3333333739999986  0.5113455097102673   T   T   T
  0.6666666408999973  0.3333333739999986  0.5113455097102673   T   T   T
  0.8333333076000002  0.3333333739999986  0.5113455097102673   T   T   T
  0.9999999742000014  0.6666667073000028  0.5113455097102673   T   T   T
  0.1666666408999973  0.6666667073000028  0.5113455097102673   T   T   T
  0.3333333076000002  0.6666667073000028  0.5113455097102673   T   T   T
  0.4999999742000014  0.6666667073000028  0.5113455097102673   T   T   T
  0.6666666408999973  0.6666667073000028  0.5113455097102673   T   T   T
  0.8333333076000002  0.6666667073000028  0.5113455097102673   T   T   T
  0.0000000029000020  0.1666667085000029  0.4925387050964218   T   T   T
  0.1666666695999979  0.1666667085000029  0.4925387050964218   T   T   T
  0.3333333363000008  0.1666667085000029  0.4925387050964218   T   T   T
  0.5000000029000020  0.1666667085000029  0.4925387050964218   T   T   T
  0.6666666695999979  0.1666667085000029  0.4925387050964218   T   T   T
  0.8333333363000008  0.1666667085000029  0.4925387050964218   T   T   T
  0.0000000029000020  0.5000000419000017  0.4925387050964218   T   T   T
  0.1666666695999979  0.5000000419000017  0.4925387050964218   T   T   T
  0.3333333363000008  0.5000000419000017  0.4925387050964218   T   T   T
  0.5000000029000020  0.5000000419000017  0.4925387050964218   T   T   T
  0.6666666695999979  0.5000000419000017  0.4925387050964218   T   T   T
  0.8333333363000008  0.5000000419000017  0.4925387050964218   T   T   T
  0.0000000029000020  0.8333333751999987  0.4925387050964218   T   T   T
  0.1666666695999979  0.8333333751999987  0.4925387050964218   T   T   T
  0.3333333363000008  0.8333333751999987  0.4925387050964218   T   T   T
  0.5000000029000020  0.8333333751999987  0.4925387050964218   T   T   T
  0.6666666695999979  0.8333333751999987  0.4925387050964218   T   T   T
  0.8333333363000008  0.8333333751999987  0.4925387050964218   T   T   T
  0.0833333263000000  0.9347102764639956  0.4596409427393837   T   T   T
  0.2499999930000030  0.9347102764639956  0.4596409427393837   T   T   T
  0.4166666595999970  0.9347102764639956  0.4596409427393837   T   T   T
  0.5833333263000000  0.9347102764639956  0.4596409427393837   T   T   T
  0.7499999930000030  0.9347102764639956  0.4596409427393837   T   T   T
  0.9166666595999970  0.9347102764639956  0.4596409427393837   T   T   T
  0.0833333261999982  0.0652897933360066  0.4596409283393825   T   T   T
  0.2499999927999994  0.0652897933360066  0.4596409283393825   T   T   T
  0.4166666595000024  0.0652897933360066  0.4596409283393825   T   T   T
  0.5833333261999982  0.0652897933360066  0.4596409283393825   T   T   T
  0.7499999927999994  0.0652897933360066  0.4596409283393825   T   T   T
  0.9166666595000024  0.0652897933360066  0.4596409283393825   T   T   T
  0.0833333263000000  0.2680436098639944  0.4596409427393837   T   T   T
  0.2499999930000030  0.2680436098639944  0.4596409427393837   T   T   T
  0.4166666595999970  0.2680436098639944  0.4596409427393837   T   T   T
  0.5833333263000000  0.2680436098639944  0.4596409427393837   T   T   T
  0.7499999930000030  0.2680436098639944  0.4596409427393837   T   T   T
  0.9166666595999970  0.2680436098639944  0.4596409427393837   T   T   T
  0.0833333261999982  0.3986231266360036  0.4596409283393825   T   T   T
  0.2499999927999994  0.3986231266360036  0.4596409283393825   T   T   T
  0.4166666595000024  0.3986231266360036  0.4596409283393825   T   T   T
  0.5833333261999982  0.3986231266360036  0.4596409283393825   T   T   T
  0.7499999927999994  0.3986231266360036  0.4596409283393825   T   T   T
  0.9166666595000024  0.3986231266360036  0.4596409283393825   T   T   T
  0.0833333263000000  0.6013769431639986  0.4596409427393837   T   T   T
  0.2499999930000030  0.6013769431639986  0.4596409427393837   T   T   T
  0.4166666595999970  0.6013769431639986  0.4596409427393837   T   T   T
  0.5833333263000000  0.6013769431639986  0.4596409427393837   T   T   T
  0.7499999930000030  0.6013769431639986  0.4596409427393837   T   T   T
  0.9166666595999970  0.6013769431639986  0.4596409427393837   T   T   T
  0.0833333261999982  0.7319564600360025  0.4596409283393825   T   T   T
  0.2499999927999994  0.7319564600360025  0.4596409283393825   T   T   T
  0.4166666595000024  0.7319564600360025  0.4596409283393825   T   T   T
  0.5833333261999982  0.7319564600360025  0.4596409283393825   T   T   T
  0.7499999927999994  0.7319564600360025  0.4596409283393825   T   T   T
  0.9166666595000024  0.7319564600360025  0.4596409283393825   T   T   T
  0.0000000064000005  0.1666666973999966  0.4267466942685303   T   T   T
  0.1666666731000035  0.1666666973999966  0.4267466942685303   T   T   T
  0.3333333396999976  0.1666666973999966  0.4267466942685303   T   T   T
  0.5000000064000005  0.1666666973999966  0.4267466942685303   T   T   T
  0.6666666731000035  0.1666666973999966  0.4267466942685303   T   T   T
  0.8333333396999976  0.1666666973999966  0.4267466942685303   T   T   T
  0.0000000064000005  0.5000000307000008  0.4267466942685303   T   T   T
  0.1666666731000035  0.5000000307000008  0.4267466942685303   T   T   T
  0.3333333396999976  0.5000000307000008  0.4267466942685303   T   T   T
  0.5000000064000005  0.5000000307000008  0.4267466942685303   T   T   T
  0.6666666731000035  0.5000000307000008  0.4267466942685303   T   T   T
  0.8333333396999976  0.5000000307000008  0.4267466942685303   T   T   T
  0.0000000064000005  0.8333333640999996  0.4267466942685303   T   T   T
  0.1666666731000035  0.8333333640999996  0.4267466942685303   T   T   T
  0.3333333396999976  0.8333333640999996  0.4267466942685303   T   T   T
  0.5000000064000005  0.8333333640999996  0.4267466942685303   T   T   T
  0.6666666731000035  0.8333333640999996  0.4267466942685303   T   T   T
  0.8333333396999976  0.8333333640999996  0.4267466942685303   T   T   T
  0.9999999958999979  0.0000000041999968  0.4078775777583203   T   T   T
  0.1666666626000008  0.0000000041999968  0.4078775777583203   T   T   T
  0.3333333292000020  0.0000000041999968  0.4078775777583203   T   T   T
  0.4999999958999979  0.0000000041999968  0.4078775777583203   T   T   T
  0.6666666626000008  0.0000000041999968  0.4078775777583203   T   T   T
  0.8333333292000020  0.0000000041999968  0.4078775777583203   T   T   T
  0.9999999958999979  0.3333333375000009  0.4078775777583203   T   T   T
  0.1666666626000008  0.3333333375000009  0.4078775777583203   T   T   T
  0.3333333292000020  0.3333333375000009  0.4078775777583203   T   T   T
  0.4999999958999979  0.3333333375000009  0.4078775777583203   T   T   T
  0.6666666626000008  0.3333333375000009  0.4078775777583203   T   T   T
  0.8333333292000020  0.3333333375000009  0.4078775777583203   T   T   T
  0.9999999958999979  0.6666666708999998  0.4078775777583203   T   T   T
  0.1666666626000008  0.6666666708999998  0.4078775777583203   T   T   T
  0.3333333292000020  0.6666666708999998  0.4078775777583203   T   T   T
  0.4999999958999979  0.6666666708999998  0.4078775777583203   T   T   T
  0.6666666626000008  0.6666666708999998  0.4078775777583203   T   T   T
  0.8333333292000020  0.6666666708999998  0.4078775777583203   T   T   T
  0.0833333332999970  0.1014404383000027  0.3750000000000000   F   F   F
  0.2500000000000000  0.1014404383000027  0.3750000000000000   F   F   F
  0.4166666667000030  0.1014404383000027  0.3750000000000000   F   F   F
  0.5833333332999970  0.1014404383000027  0.3750000000000000   F   F   F
  0.7500000000000000  0.1014404383000027  0.3750000000000000   F   F   F
  0.9166666667000030  0.1014404383000027  0.3750000000000000   F   F   F
  0.0833333332999970  0.2318928950000014  0.3750000000000000   F   F   F
  0.2500000000000000  0.2318928950000014  0.3750000000000000   F   F   F
  0.4166666667000030  0.2318928950000014  0.3750000000000000   F   F   F
  0.5833333332999970  0.2318928950000014  0.3750000000000000   F   F   F
  0.7500000000000000  0.2318928950000014  0.3750000000000000   F   F   F
  0.9166666667000030  0.2318928950000014  0.3750000000000000   F   F   F
  0.0833333332999970  0.4347737717000015  0.3750000000000000   F   F   F
  0.2500000000000000  0.4347737717000015  0.3750000000000000   F   F   F
  0.4166666667000030  0.4347737717000015  0.3750000000000000   F   F   F
  0.5833333332999970  0.4347737717000015  0.3750000000000000   F   F   F
  0.7500000000000000  0.4347737717000015  0.3750000000000000   F   F   F
  0.9166666667000030  0.4347737717000015  0.3750000000000000   F   F   F
  0.0833333332999970  0.5652262282999985  0.3750000000000000   F   F   F
  0.2500000000000000  0.5652262282999985  0.3750000000000000   F   F   F
  0.4166666667000030  0.5652262282999985  0.3750000000000000   F   F   F
  0.5833333332999970  0.5652262282999985  0.3750000000000000   F   F   F
  0.7500000000000000  0.5652262282999985  0.3750000000000000   F   F   F
  0.9166666667000030  0.5652262282999985  0.3750000000000000   F   F   F
  0.0833333332999970  0.7681071049999986  0.3750000000000000   F   F   F
  0.2500000000000000  0.7681071049999986  0.3750000000000000   F   F   F
  0.4166666667000030  0.7681071049999986  0.3750000000000000   F   F   F
  0.5833333332999970  0.7681071049999986  0.3750000000000000   F   F   F
  0.7500000000000000  0.7681071049999986  0.3750000000000000   F   F   F
  0.9166666667000030  0.7681071049999986  0.3750000000000000   F   F   F
  0.0833333332999970  0.8985595616999973  0.3750000000000000   F   F   F
  0.2500000000000000  0.8985595616999973  0.3750000000000000   F   F   F
  0.4166666667000030  0.8985595616999973  0.3750000000000000   F   F   F
  0.5833333332999970  0.8985595616999973  0.3750000000000000   F   F   F
  0.7500000000000000  0.8985595616999973  0.3750000000000000   F   F   F
  0.9166666667000030  0.8985595616999973  0.3750000000000000   F   F   F
  0.0000000000000000  0.0000000000000000  0.3423868858000034   F   F   F
  0.1666666667000030  0.0000000000000000  0.3423868858000034   F   F   F
  0.3333333332999970  0.0000000000000000  0.3423868858000034   F   F   F
  0.5000000000000000  0.0000000000000000  0.3423868858000034   F   F   F
  0.6666666667000030  0.0000000000000000  0.3423868858000034   F   F   F
  0.8333333332999970  0.0000000000000000  0.3423868858000034   F   F   F
  0.0000000000000000  0.3333333332999970  0.3423868858000034   F   F   F
  0.1666666667000030  0.3333333332999970  0.3423868858000034   F   F   F
  0.3333333332999970  0.3333333332999970  0.3423868858000034   F   F   F
  0.5000000000000000  0.3333333332999970  0.3423868858000034   F   F   F
  0.6666666667000030  0.3333333332999970  0.3423868858000034   F   F   F
  0.8333333332999970  0.3333333332999970  0.3423868858000034   F   F   F
  0.0000000000000000  0.6666666667000030  0.3423868858000034   F   F   F
  0.1666666667000030  0.6666666667000030  0.3423868858000034   F   F   F
  0.3333333332999970  0.6666666667000030  0.3423868858000034   F   F   F
  0.5000000000000000  0.6666666667000030  0.3423868858000034   F   F   F
  0.6666666667000030  0.6666666667000030  0.3423868858000034   F   F   F
  0.8333333332999970  0.6666666667000030  0.3423868858000034   F   F   F
  0.0000000000000000  0.1666666667000030  0.3242797807999978   F   F   F
  0.1666666667000030  0.1666666667000030  0.3242797807999978   F   F   F
  0.3333333332999970  0.1666666667000030  0.3242797807999978   F   F   F
  0.5000000000000000  0.1666666667000030  0.3242797807999978   F   F   F
  0.6666666667000030  0.1666666667000030  0.3242797807999978   F   F   F
  0.8333333332999970  0.1666666667000030  0.3242797807999978   F   F   F
  0.0000000000000000  0.5000000000000000  0.3242797807999978   F   F   F
  0.1666666667000030  0.5000000000000000  0.3242797807999978   F   F   F
  0.3333333332999970  0.5000000000000000  0.3242797807999978   F   F   F
  0.5000000000000000  0.5000000000000000  0.3242797807999978   F   F   F
  0.6666666667000030  0.5000000000000000  0.3242797807999978   F   F   F
  0.8333333332999970  0.5000000000000000  0.3242797807999978   F   F   F
  0.0000000000000000  0.8333333332999970  0.3242797807999978   F   F   F
  0.1666666667000030  0.8333333332999970  0.3242797807999978   F   F   F
  0.3333333332999970  0.8333333332999970  0.3242797807999978   F   F   F
  0.5000000000000000  0.8333333332999970  0.3242797807999978   F   F   F
  0.6666666667000030  0.8333333332999970  0.3242797807999978   F   F   F
  0.8333333332999970  0.8333333332999970  0.3242797807999978   F   F   F
  0.0833333332999970  0.9347737717000015  0.2916666667000030   F   F   F
  0.2500000000000000  0.9347737717000015  0.2916666667000030   F   F   F
  0.4166666667000030  0.9347737717000015  0.2916666667000030   F   F   F
  0.5833333332999970  0.9347737717000015  0.2916666667000030   F   F   F
  0.7500000000000000  0.9347737717000015  0.2916666667000030   F   F   F
  0.9166666667000030  0.9347737717000015  0.2916666667000030   F   F   F
  0.0833333332999970  0.0652262282999985  0.2916666667000030   F   F   F
  0.2500000000000000  0.0652262282999985  0.2916666667000030   F   F   F
  0.4166666667000030  0.0652262282999985  0.2916666667000030   F   F   F
  0.5833333332999970  0.0652262282999985  0.2916666667000030   F   F   F
  0.7500000000000000  0.0652262282999985  0.2916666667000030   F   F   F
  0.9166666667000030  0.0652262282999985  0.2916666667000030   F   F   F
  0.0833333332999970  0.2681071049999986  0.2916666667000030   F   F   F
  0.2500000000000000  0.2681071049999986  0.2916666667000030   F   F   F
  0.4166666667000030  0.2681071049999986  0.2916666667000030   F   F   F
  0.5833333332999970  0.2681071049999986  0.2916666667000030   F   F   F
  0.7500000000000000  0.2681071049999986  0.2916666667000030   F   F   F
  0.9166666667000030  0.2681071049999986  0.2916666667000030   F   F   F
  0.0833333332999970  0.3985595616999973  0.2916666667000030   F   F   F
  0.2500000000000000  0.3985595616999973  0.2916666667000030   F   F   F
  0.4166666667000030  0.3985595616999973  0.2916666667000030   F   F   F
  0.5833333332999970  0.3985595616999973  0.2916666667000030   F   F   F
  0.7500000000000000  0.3985595616999973  0.2916666667000030   F   F   F
  0.9166666667000030  0.3985595616999973  0.2916666667000030   F   F   F
  0.0833333332999970  0.6014404383000027  0.2916666667000030   F   F   F
  0.2500000000000000  0.6014404383000027  0.2916666667000030   F   F   F
  0.4166666667000030  0.6014404383000027  0.2916666667000030   F   F   F
  0.5833333332999970  0.6014404383000027  0.2916666667000030   F   F   F