Ti216 O432
1.0
  17.8080654144000015    0.0000000000000000   -0.0000000000000029
   0.0000000000000032   19.7737498283999997    0.0000000000000012
   0.0000000000000000    0.0000000000000000   39.5474996568000066
Ti O
216 432
direct
   0.0000000000000000    0.1666666666666666    0.3750000000000001 Ti
   0.0000000000000000    0.4999999999999999    0.3750000000000001 Ti
   0.0000000000000000    0.8333333333333333    0.3750000000000001 Ti
   0.1666666666666667    0.1666666666666666    0.3750000000000001 Ti
   0.1666666666666667    0.4999999999999999    0.3750000000000001 Ti
   0.1666666666666667    0.8333333333333333    0.3750000000000001 Ti
   0.3333333333333333    0.1666666666666666    0.3750000000000001 Ti
   0.3333333333333333    0.4999999999999999    0.3750000000000001 Ti
   0.3333333333333333    0.8333333333333333    0.3750000000000001 Ti
   0.4999999999999999    0.1666666666666666    0.3750000000000001 Ti
   0.5000000000000000    0.4999999999999999    0.3750000000000001 Ti
   0.4999999999999999    0.8333333333333333    0.3750000000000001 Ti
   0.6666666666666666    0.1666666666666666    0.3750000000000001 Ti
   0.6666666666666666    0.4999999999999999    0.3750000000000001 Ti
   0.6666666666666666    0.8333333333333333    0.3750000000000001 Ti
   0.8333333333333333    0.1666666666666666    0.3750000000000001 Ti
   0.8333333333333333    0.4999999999999999    0.3750000000000001 Ti
   0.8333333333333333    0.8333333333333333    0.3750000000000001 Ti
   0.0000000000000000    0.0000000000000000    0.2916666666666667 Ti
   0.0000000000000000    0.3333333333333333    0.2916666666666667 Ti
   0.0000000000000000    0.6666666666666666    0.2916666666666667 Ti
   0.1666666666666667    0.0000000000000000    0.2916666666666667 Ti
   0.1666666666666667    0.3333333333333333    0.2916666666666667 Ti
   0.1666666666666667    0.6666666666666666    0.2916666666666667 Ti
   0.3333333333333333    0.0000000000000000    0.2916666666666667 Ti
   0.3333333333333333    0.3333333333333333    0.2916666666666667 Ti
   0.3333333333333333    0.6666666666666666    0.2916666666666667 Ti
   0.5000000000000000    0.0000000000000000    0.2916666666666667 Ti
   0.5000000000000000    0.3333333333333333    0.2916666666666667 Ti
   0.5000000000000000    0.6666666666666666    0.2916666666666667 Ti
   0.6666666666666666    0.0000000000000000    0.2916666666666667 Ti
   0.6666666666666666    0.3333333333333333    0.2916666666666667 Ti
   0.6666666666666666    0.6666666666666666    0.2916666666666667 Ti
   0.8333333333333333    0.0000000000000000    0.2916666666666667 Ti
   0.8333333333333333    0.3333333333333333    0.2916666666666667 Ti
   0.8333333333333333    0.6666666666666666    0.2916666666666667 Ti
   0.0833333333333333    0.1666666666666667    0.2916666666666667 Ti
   0.0833333333333333    0.5000000000000000    0.2916666666666667 Ti
   0.0833333333333333    0.8333333333333333    0.2916666666666667 Ti
   0.2500000000000000    0.1666666666666667    0.2916666666666667 Ti
   0.2500000000000000    0.5000000000000000    0.2916666666666667 Ti
   0.2500000000000000    0.8333333333333333    0.2916666666666667 Ti
   0.4166666666666666    0.1666666666666667    0.2916666666666667 Ti
   0.4166666666666666    0.5000000000000000    0.2916666666666667 Ti
   0.4166666666666666    0.8333333333333333    0.2916666666666667 Ti
   0.5833333333333334    0.1666666666666667    0.2916666666666667 Ti
   0.5833333333333333    0.5000000000000000    0.2916666666666667 Ti
   0.5833333333333333    0.8333333333333333    0.2916666666666667 Ti
   0.7500000000000000    0.1666666666666667    0.2916666666666667 Ti
   0.7499999999999999    0.5000000000000000    0.2916666666666667 Ti
   0.7499999999999999    0.8333333333333333    0.2916666666666667 Ti
   0.9166666666666666    0.1666666666666667    0.2916666666666667 Ti
   0.9166666666666666    0.5000000000000000    0.2916666666666667 Ti
   0.9166666666666666    0.8333333333333333    0.2916666666666667 Ti
   0.0833333333333333    0.3333333333333333    0.3750000000000001 Ti
   0.0833333333333333    0.6666666666666666    0.3750000000000001 Ti
   0.0833333333333333    0.9999999999999998    0.3750000000000001 Ti
   0.2500000000000000    0.3333333333333333    0.3750000000000001 Ti
   0.2500000000000000    0.6666666666666666    0.3750000000000001 Ti
   0.2500000000000001    0.9999999999999998    0.3750000000000001 Ti
   0.4166666666666667    0.3333333333333333    0.3750000000000001 Ti
   0.4166666666666667    0.6666666666666666    0.3750000000000001 Ti
   0.4166666666666667    0.9999999999999998    0.3750000000000001 Ti
   0.5833333333333333    0.3333333333333333    0.3750000000000001 Ti
   0.5833333333333334    0.6666666666666666    0.3750000000000001 Ti
   0.5833333333333333    0.9999999999999998    0.3750000000000001 Ti
   0.7499999999999999    0.3333333333333333    0.3750000000000001 Ti
   0.7500000000000000    0.6666666666666666    0.3750000000000001 Ti
   0.7499999999999999    0.9999999999999998    0.3750000000000001 Ti
   0.9166666666666665    0.3333333333333333    0.3750000000000001 Ti
   0.9166666666666666    0.6666666666666666    0.3750000000000001 Ti
   0.9166666666666665    0.9999999999999998    0.3750000000000001 Ti
   0.0000000000000000    0.1666666666666665    0.5416666666666669 Ti
   0.0000000000000000    0.4999999999999998    0.5416666666666669 Ti
   0.0000000000000000    0.8333333333333333    0.5416666666666669 Ti
   0.1666666666666667    0.1666666666666665    0.5416666666666669 Ti
   0.1666666666666667    0.4999999999999998    0.5416666666666669 Ti
   0.1666666666666667    0.8333333333333333    0.5416666666666669 Ti
   0.3333333333333333    0.1666666666666665    0.5416666666666669 Ti
   0.3333333333333333    0.4999999999999998    0.5416666666666669 Ti
   0.3333333333333333    0.8333333333333333    0.5416666666666669 Ti
   0.4999999999999999    0.1666666666666665    0.5416666666666669 Ti
   0.5000000000000000    0.4999999999999998    0.5416666666666669 Ti
   0.4999999999999999    0.8333333333333333    0.5416666666666669 Ti
   0.6666666666666666    0.1666666666666665    0.5416666666666667 Ti
   0.6666666666666666    0.4999999999999998    0.5416666666666669 Ti
   0.6666666666666666    0.8333333333333333    0.5416666666666669 Ti
   0.8333333333333333    0.1666666666666665    0.5416666666666667 Ti
   0.8333333333333333    0.4999999999999998    0.5416666666666667 Ti
   0.8333333333333333    0.8333333333333333    0.5416666666666669 Ti
   0.0000000000000000    0.3333333333333333    0.4583333333333334 Ti
   0.0000000000000000    0.6666666666666666    0.4583333333333334 Ti
   0.0000000000000000    0.9999999999999998    0.4583333333333334 Ti
   0.1666666666666667    0.3333333333333333    0.4583333333333334 Ti
   0.1666666666666667    0.6666666666666666    0.4583333333333334 Ti
   0.1666666666666667    0.9999999999999998    0.4583333333333334 Ti
   0.3333333333333333    0.3333333333333333    0.4583333333333334 Ti
   0.3333333333333333    0.6666666666666666    0.4583333333333334 Ti
   0.3333333333333333    0.9999999999999998    0.4583333333333334 Ti
   0.5000000000000000    0.3333333333333333    0.4583333333333334 Ti
   0.5000000000000001    0.6666666666666666    0.4583333333333334 Ti
   0.5000000000000000    0.9999999999999998    0.4583333333333334 Ti
   0.6666666666666666    0.3333333333333333    0.4583333333333334 Ti
   0.6666666666666667    0.6666666666666666    0.4583333333333335 Ti
   0.6666666666666666    0.9999999999999998    0.4583333333333334 Ti
   0.8333333333333333    0.3333333333333333    0.4583333333333334 Ti
   0.8333333333333334    0.6666666666666666    0.4583333333333334 Ti
   0.8333333333333333    0.9999999999999998    0.4583333333333335 Ti
   0.0833333333333333    0.1666666666666666    0.4583333333333334 Ti
   0.0833333333333333    0.4999999999999999    0.4583333333333334 Ti
   0.0833333333333333    0.8333333333333333    0.4583333333333334 Ti
   0.2500000000000000    0.1666666666666666    0.4583333333333334 Ti
   0.2500000000000000    0.4999999999999999    0.4583333333333334 Ti
   0.2500000000000000    0.8333333333333333    0.4583333333333334 Ti
   0.4166666666666666    0.1666666666666666    0.4583333333333334 Ti
   0.4166666666666666    0.4999999999999999    0.4583333333333334 Ti
   0.4166666666666666    0.8333333333333333    0.4583333333333334 Ti
   0.5833333333333334    0.1666666666666666    0.4583333333333335 Ti
   0.5833333333333333    0.4999999999999999    0.4583333333333334 Ti
   0.5833333333333333    0.8333333333333333    0.4583333333333334 Ti
   0.7500000000000000    0.1666666666666666    0.4583333333333334 Ti
   0.7499999999999999    0.4999999999999999    0.4583333333333335 Ti
   0.7499999999999999    0.8333333333333333    0.4583333333333335 Ti
   0.9166666666666666    0.1666666666666666    0.4583333333333334 Ti
   0.9166666666666666    0.4999999999999999    0.4583333333333334 Ti
   0.9166666666666666    0.8333333333333333    0.4583333333333335 Ti
   0.0833333333333333    0.3333333333333332    0.5416666666666669 Ti
   0.0833333333333333    0.6666666666666665    0.5416666666666669 Ti
   0.0833333333333333    0.9999999999999998    0.5416666666666669 Ti
   0.2500000000000000    0.3333333333333332    0.5416666666666669 Ti
   0.2500000000000000    0.6666666666666665    0.5416666666666669 Ti
   0.2500000000000000    0.9999999999999998    0.5416666666666669 Ti
   0.4166666666666666    0.3333333333333332    0.5416666666666669 Ti
   0.4166666666666667    0.6666666666666665    0.5416666666666669 Ti
   0.4166666666666666    0.9999999999999998    0.5416666666666669 Ti
   0.5833333333333333    0.3333333333333332    0.5416666666666669 Ti
   0.5833333333333334    0.6666666666666665    0.5416666666666669 Ti
   0.5833333333333333    0.9999999999999998    0.5416666666666669 Ti
   0.7499999999999999    0.3333333333333332    0.5416666666666667 Ti
   0.7500000000000000    0.6666666666666665    0.5416666666666669 Ti
   0.7499999999999999    0.9999999999999998    0.5416666666666669 Ti
   0.9166666666666665    0.3333333333333332    0.5416666666666669 Ti
   0.9166666666666666    0.6666666666666665    0.5416666666666667 Ti
   0.9166666666666665    0.9999999999999998    0.5416666666666669 Ti
   0.0000000000000000    0.1666666666666666    0.7083333333333334 Ti
   0.0000000000000000    0.4999999999999999    0.7083333333333334 Ti
   0.0000000000000000    0.8333333333333333    0.7083333333333334 Ti
   0.1666666666666667    0.1666666666666666    0.7083333333333334 Ti
   0.1666666666666667    0.4999999999999999    0.7083333333333334 Ti
   0.1666666666666667    0.8333333333333333    0.7083333333333334 Ti
   0.3333333333333333    0.1666666666666666    0.7083333333333334 Ti
   0.3333333333333333    0.4999999999999999    0.7083333333333334 Ti
   0.3333333333333333    0.8333333333333333    0.7083333333333334 Ti
   0.4999999999999999    0.1666666666666666    0.7083333333333334 Ti
   0.5000000000000000    0.4999999999999999    0.7083333333333334 Ti
   0.4999999999999999    0.8333333333333333    0.7083333333333334 Ti
   0.6666666666666666    0.1666666666666666    0.7083333333333333 Ti
   0.6666666666666666    0.4999999999999999    0.7083333333333334 Ti
   0.6666666666666666    0.8333333333333333    0.7083333333333334 Ti
   0.8333333333333333    0.1666666666666666    0.7083333333333333 Ti
   0.8333333333333333    0.4999999999999999    0.7083333333333333 Ti
   0.8333333333333333    0.8333333333333333    0.7083333333333334 Ti
   0.0000000000000000    0.0000000000000000    0.6250000000000001 Ti
   0.0000000000000000    0.3333333333333333    0.6250000000000001 Ti
   0.0000000000000000    0.6666666666666666    0.6250000000000001 Ti
   0.1666666666666667    0.0000000000000000    0.6250000000000001 Ti
   0.1666666666666667    0.3333333333333333    0.6250000000000001 Ti
   0.1666666666666667    0.6666666666666666    0.6250000000000001 Ti
   0.3333333333333333    0.0000000000000000    0.6250000000000001 Ti
   0.3333333333333333    0.3333333333333333    0.6250000000000001 Ti
   0.3333333333333333    0.6666666666666666    0.6250000000000001 Ti
   0.5000000000000000    0.0000000000000000    0.6250000000000001 Ti
   0.5000000000000000    0.3333333333333333    0.6250000000000001 Ti
   0.5000000000000000    0.6666666666666666    0.6250000000000001 Ti
   0.6666666666666666    0.0000000000000000    0.6250000000000000 Ti
   0.6666666666666666    0.3333333333333333    0.6250000000000001 Ti
   0.6666666666666666    0.6666666666666666    0.6250000000000001 Ti
   0.8333333333333333    0.0000000000000000    0.6250000000000001 Ti
   0.8333333333333333    0.3333333333333333    0.6250000000000000 Ti
   0.8333333333333333    0.6666666666666666    0.6250000000000001 Ti
   0.0833333333333333    0.1666666666666665    0.6250000000000001 Ti
   0.0833333333333333    0.4999999999999998    0.6250000000000001 Ti
   0.0833333333333333    0.8333333333333333    0.6250000000000001 Ti
   0.2500000000000000    0.1666666666666665    0.6250000000000001 Ti
   0.2500000000000000    0.4999999999999998    0.6250000000000001 Ti
   0.2500000000000000    0.8333333333333333    0.6250000000000001 Ti
   0.4166666666666666    0.1666666666666665    0.6250000000000001 Ti
   0.4166666666666666    0.4999999999999998    0.6250000000000001 Ti
   0.4166666666666666    0.8333333333333333    0.6250000000000001 Ti
   0.5833333333333334    0.1666666666666665    0.6250000000000001 Ti
   0.5833333333333333    0.4999999999999998    0.6250000000000001 Ti
   0.5833333333333333    0.8333333333333333    0.6250000000000001 Ti
   0.7500000000000000    0.1666666666666665    0.6250000000000000 Ti
   0.7499999999999999    0.4999999999999998    0.6250000000000001 Ti
   0.7499999999999999    0.8333333333333333    0.6250000000000001 Ti
   0.9166666666666666    0.1666666666666665    0.6250000000000001 Ti
   0.9166666666666666    0.4999999999999998    0.6250000000000000 Ti
   0.9166666666666666    0.8333333333333333    0.6250000000000001 Ti
   0.0833333333333333    0.3333333333333332    0.7083333333333334 Ti
   0.0833333333333333    0.6666666666666665    0.7083333333333334 Ti
   0.0833333333333333    0.9999999999999998    0.7083333333333334 Ti
   0.2500000000000000    0.3333333333333332    0.7083333333333334 Ti
   0.2500000000000000    0.6666666666666665    0.7083333333333334 Ti
   0.2500000000000001    0.9999999999999998    0.7083333333333334 Ti
   0.4166666666666667    0.3333333333333332    0.7083333333333334 Ti
   0.4166666666666667    0.6666666666666665    0.7083333333333334 Ti
   0.4166666666666667    0.9999999999999998    0.7083333333333334 Ti
   0.5833333333333333    0.3333333333333332    0.7083333333333334 Ti
   0.5833333333333334    0.6666666666666665    0.7083333333333334 Ti
   0.5833333333333333    0.9999999999999998    0.7083333333333334 Ti
   0.7499999999999999    0.3333333333333332    0.7083333333333333 Ti
   0.7500000000000000    0.6666666666666665    0.7083333333333334 Ti
   0.7499999999999999    0.9999999999999998    0.7083333333333334 Ti
   0.9166666666666665    0.3333333333333332    0.7083333333333334 Ti
   0.9166666666666666    0.6666666666666665    0.7083333333333333 Ti
   0.9166666666666665    0.9999999999999998    0.7083333333333334 Ti
   0.0833333333333333    0.2318928950000000    0.3750000000000001 O
   0.0833333333333333    0.5652262283333332    0.3750000000000001 O
   0.0833333333333333    0.8985595616666666    0.3750000000000001 O
   0.2500000000000000    0.2318928950000000    0.3750000000000001 O
   0.2500000000000000    0.5652262283333332    0.3750000000000001 O
   0.2500000000000000    0.8985595616666666    0.3750000000000001 O
   0.4166666666666666    0.2318928950000000    0.3750000000000001 O
   0.4166666666666666    0.5652262283333332    0.3750000000000001 O
   0.4166666666666666    0.8985595616666666    0.3750000000000001 O
   0.5833333333333334    0.2318928950000000    0.3750000000000001 O
   0.5833333333333334    0.5652262283333332    0.3750000000000001 O
   0.5833333333333334    0.8985595616666666    0.3750000000000001 O
   0.7500000000000000    0.2318928950000000    0.3750000000000001 O
   0.7500000000000000    0.5652262283333332    0.3750000000000001 O
   0.7500000000000000    0.8985595616666666    0.3750000000000001 O
   0.9166666666666666    0.2318928950000000    0.3750000000000001 O
   0.9166666666666666    0.5652262283333332    0.3750000000000001 O
   0.9166666666666666    0.8985595616666666    0.3750000000000001 O
   0.0833333333333333    0.0652262283333333    0.2916666666666667 O
   0.0833333333333333    0.3985595616666666    0.2916666666666667 O
   0.0833333333333333    0.7318928950000000    0.2916666666666667 O
   0.2500000000000000    0.0652262283333333    0.2916666666666667 O
   0.2500000000000000    0.3985595616666666    0.2916666666666667 O
   0.2500000000000001    0.7318928950000000    0.2916666666666667 O
   0.4166666666666667    0.0652262283333333    0.2916666666666667 O
   0.4166666666666666    0.3985595616666666    0.2916666666666667 O
   0.4166666666666667    0.7318928950000000    0.2916666666666667 O
   0.5833333333333334    0.0652262283333333    0.2916666666666667 O
   0.5833333333333333    0.3985595616666666    0.2916666666666667 O
   0.5833333333333333    0.7318928950000000    0.2916666666666667 O
   0.7500000000000000    0.0652262283333333    0.2916666666666667 O
   0.7499999999999999    0.3985595616666666    0.2916666666666667 O
   0.7499999999999999    0.7318928950000000    0.2916666666666667 O
   0.9166666666666666    0.0652262283333333    0.2916666666666667 O
   0.9166666666666666    0.3985595616666666    0.2916666666666667 O
   0.9166666666666666    0.7318928950000000    0.2916666666666667 O
   0.0000000000000000    0.1666666666666667    0.2590535525000001 O
   0.0000000000000000    0.5000000000000000    0.2590535525000001 O
   0.0000000000000000    0.8333333333333333    0.2590535525000001 O
   0.1666666666666667    0.1666666666666667    0.2590535525000001 O
   0.1666666666666667    0.5000000000000000    0.2590535525000001 O
   0.1666666666666667    0.8333333333333333    0.2590535525000001 O
   0.3333333333333333    0.1666666666666667    0.2590535525000000 O
   0.3333333333333333    0.5000000000000000    0.2590535525000001 O
   0.3333333333333333    0.8333333333333333    0.2590535525000001 O
   0.4999999999999999    0.1666666666666667    0.2590535525000001 O
   0.5000000000000000    0.5000000000000000    0.2590535525000000 O
   0.4999999999999999    0.8333333333333333    0.2590535525000001 O
   0.6666666666666666    0.1666666666666667    0.2590535525000001 O
   0.6666666666666666    0.5000000000000000    0.2590535525000001 O
   0.6666666666666666    0.8333333333333333    0.2590535525000000 O
   0.8333333333333333    0.1666666666666667    0.2590535525000001 O
   0.8333333333333333    0.5000000000000000    0.2590535525000001 O
   0.8333333333333333    0.8333333333333333    0.2590535525000001 O
   0.0000000000000000    0.0000000000000000    0.3423868858333334 O
   0.0000000000000000    0.3333333333333333    0.3423868858333334 O
   0.0000000000000000    0.6666666666666666    0.3423868858333334 O
   0.1666666666666667    0.0000000000000000    0.3423868858333334 O
   0.1666666666666667    0.3333333333333333    0.3423868858333334 O
   0.1666666666666667    0.6666666666666666    0.3423868858333334 O
   0.3333333333333333    0.0000000000000000    0.3423868858333334 O
   0.3333333333333333    0.3333333333333333    0.3423868858333334 O
   0.3333333333333333    0.6666666666666666    0.3423868858333334 O
   0.5000000000000000    0.0000000000000000    0.3423868858333334 O
   0.5000000000000000    0.3333333333333333    0.3423868858333334 O
   0.5000000000000000    0.6666666666666666    0.3423868858333334 O
   0.6666666666666666    0.0000000000000000    0.3423868858333334 O
   0.6666666666666666    0.3333333333333333    0.3423868858333334 O
   0.6666666666666666    0.6666666666666666    0.3423868858333334 O
   0.8333333333333333    0.0000000000000000    0.3423868858333334 O
   0.8333333333333333    0.3333333333333333    0.3423868858333334 O
   0.8333333333333333    0.6666666666666666    0.3423868858333334 O
   0.0000000000000000    0.1666666666666666    0.3242797808333335 O
   0.0000000000000000    0.4999999999999999    0.3242797808333335 O
   0.0000000000000000    0.8333333333333333    0.3242797808333335 O
   0.1666666666666667    0.1666666666666666    0.3242797808333335 O
   0.1666666666666667    0.4999999999999999    0.3242797808333335 O
   0.1666666666666667    0.8333333333333333    0.3242797808333335 O
   0.3333333333333333    0.1666666666666666    0.3242797808333334 O
   0.3333333333333333    0.4999999999999999    0.3242797808333335 O
   0.3333333333333333    0.8333333333333333    0.3242797808333335 O
   0.4999999999999999    0.1666666666666666    0.3242797808333335 O
   0.5000000000000000    0.4999999999999999    0.3242797808333334 O
   0.4999999999999999    0.8333333333333333    0.3242797808333335 O
   0.6666666666666666    0.1666666666666666    0.3242797808333335 O
   0.6666666666666666    0.4999999999999999    0.3242797808333335 O
   0.6666666666666666    0.8333333333333333    0.3242797808333334 O
   0.8333333333333333    0.1666666666666666    0.3242797808333335 O
   0.8333333333333333    0.4999999999999999    0.3242797808333335 O
   0.8333333333333333    0.8333333333333333    0.3242797808333335 O
   0.0833333333333333    0.1014404383333333    0.3750000000000001 O
   0.0833333333333333    0.4347737716666665    0.3750000000000001 O
   0.0833333333333333    0.7681071049999998    0.3750000000000001 O
   0.2500000000000000    0.1014404383333333    0.3750000000000001 O
   0.2500000000000000    0.4347737716666665    0.3750000000000001 O
   0.2500000000000001    0.7681071049999998    0.3750000000000001 O
   0.4166666666666667    0.1014404383333333    0.3750000000000001 O
   0.4166666666666667    0.4347737716666665    0.3750000000000001 O
   0.4166666666666667    0.7681071049999998    0.3750000000000001 O
   0.5833333333333334    0.1014404383333333    0.3750000000000001 O
   0.5833333333333333    0.4347737716666665    0.3750000000000001 O
   0.5833333333333333    0.7681071049999998    0.3750000000000001 O
   0.7500000000000000    0.1014404383333333    0.3750000000000001 O
   0.7499999999999999    0.4347737716666665    0.3750000000000001 O
   0.7499999999999999    0.7681071049999998    0.3750000000000001 O
   0.9166666666666666    0.1014404383333333    0.3750000000000001 O
   0.9166666666666666    0.4347737716666665    0.3750000000000001 O
   0.9166666666666666    0.7681071049999998    0.3750000000000001 O
   0.0833333333333333    0.2681071050000000    0.2916666666666667 O
   0.0833333333333333    0.6014404383333333    0.2916666666666667 O
   0.0833333333333333    0.9347737716666665    0.2916666666666667 O
   0.2500000000000000    0.2681071050000000    0.2916666666666667 O
   0.2500000000000000    0.6014404383333333    0.2916666666666667 O
   0.2500000000000000    0.9347737716666665    0.2916666666666667 O
   0.4166666666666666    0.2681071050000000    0.2916666666666667 O
   0.4166666666666666    0.6014404383333333    0.2916666666666667 O
   0.4166666666666666    0.9347737716666665    0.2916666666666667 O
   0.5833333333333334    0.2681071050000000    0.2916666666666667 O
   0.5833333333333334    0.6014404383333333    0.2916666666666667 O
   0.5833333333333333    0.9347737716666665    0.2916666666666667 O
   0.7500000000000000    0.2681071050000000    0.2916666666666667 O
   0.7500000000000000    0.6014404383333333    0.2916666666666667 O
   0.7499999999999999    0.9347737716666665    0.2916666666666667 O
   0.9166666666666666    0.2681071050000000    0.2916666666666667 O
   0.9166666666666666    0.6014404383333333    0.2916666666666667 O
   0.9166666666666665    0.9347737716666665    0.2916666666666667 O
   0.0833333333333333    0.2318928949999999    0.5416666666666669 O
   0.0833333333333333    0.5652262283333331    0.5416666666666669 O
   0.0833333333333333    0.8985595616666665    0.5416666666666669 O
   0.2500000000000000    0.2318928949999999    0.5416666666666669 O
   0.2499999999999999    0.5652262283333331    0.5416666666666669 O
   0.2500000000000000    0.8985595616666665    0.5416666666666669 O
   0.4166666666666666    0.2318928949999999    0.5416666666666669 O
   0.4166666666666666    0.5652262283333331    0.5416666666666669 O
   0.4166666666666666    0.8985595616666665    0.5416666666666669 O
   0.5833333333333334    0.2318928949999999    0.5416666666666669 O
   0.5833333333333334    0.5652262283333331    0.5416666666666669 O
   0.5833333333333334    0.8985595616666665    0.5416666666666669 O
   0.7500000000000000    0.2318928949999999    0.5416666666666667 O
   0.7500000000000000    0.5652262283333331    0.5416666666666669 O
   0.7500000000000000    0.8985595616666665    0.5416666666666669 O
   0.9166666666666666    0.2318928949999999    0.5416666666666669 O
   0.9166666666666666    0.5652262283333331    0.5416666666666667 O
   0.9166666666666666    0.8985595616666665    0.5416666666666669 O
   0.0833333333333333    0.0652262283333333    0.4583333333333334 O
   0.0833333333333333    0.3985595616666666    0.4583333333333334 O
   0.0833333333333333    0.7318928949999999    0.4583333333333334 O
   0.2500000000000000    0.0652262283333333    0.4583333333333334 O
   0.2500000000000000    0.3985595616666666    0.4583333333333334 O
   0.2500000000000001    0.7318928949999999    0.4583333333333334 O
   0.4166666666666667    0.0652262283333333    0.4583333333333335 O
   0.4166666666666666    0.3985595616666666    0.4583333333333334 O
   0.4166666666666667    0.7318928949999999    0.4583333333333334 O
   0.5833333333333334    0.0652262283333333    0.4583333333333335 O
   0.5833333333333333    0.3985595616666666    0.4583333333333335 O
   0.5833333333333333    0.7318928949999999    0.4583333333333334 O
   0.7500000000000000    0.0652262283333333    0.4583333333333334 O
   0.7499999999999999    0.3985595616666666    0.4583333333333335 O
   0.7499999999999999    0.7318928949999999    0.4583333333333335 O
   0.9166666666666666    0.0652262283333333    0.4583333333333334 O
   0.9166666666666666    0.3985595616666666    0.4583333333333334 O
   0.9166666666666666    0.7318928949999999    0.4583333333333335 O
   0.0000000000000000    0.1666666666666666    0.4257202191666668 O
   0.0000000000000000    0.4999999999999999    0.4257202191666668 O
   0.0000000000000000    0.8333333333333333    0.4257202191666668 O
   0.1666666666666667    0.1666666666666666    0.4257202191666668 O
   0.1666666666666667    0.4999999999999999    0.4257202191666668 O
   0.1666666666666667    0.8333333333333333    0.4257202191666668 O
   0.3333333333333333    0.1666666666666666    0.4257202191666668 O
   0.3333333333333333    0.4999999999999999    0.4257202191666668 O
   0.3333333333333333    0.8333333333333333    0.4257202191666668 O
   0.4999999999999999    0.1666666666666666    0.4257202191666669 O
   0.5000000000000000    0.4999999999999999    0.4257202191666668 O
   0.4999999999999999    0.8333333333333333    0.4257202191666668 O
   0.6666666666666666    0.1666666666666666    0.4257202191666667 O
   0.6666666666666666    0.4999999999999999    0.4257202191666669 O
   0.6666666666666666    0.8333333333333333    0.4257202191666668 O
   0.8333333333333333    0.1666666666666666    0.4257202191666667 O
   0.8333333333333333    0.4999999999999999    0.4257202191666667 O
   0.8333333333333333    0.8333333333333333    0.4257202191666669 O
   0.0000000000000000    0.3333333333333333    0.5090535525000001 O
   0.0000000000000000    0.6666666666666666    0.5090535525000001 O
   0.0000000000000000    0.9999999999999998    0.5090535525000001 O
   0.1666666666666667    0.3333333333333333    0.5090535525000001 O
   0.1666666666666667    0.6666666666666666    0.5090535525000001 O
   0.1666666666666667    0.9999999999999998    0.5090535525000001 O
   0.3333333333333333    0.3333333333333333    0.5090535525000001 O
   0.3333333333333333    0.6666666666666666    0.5090535525000001 O
   0.3333333333333333    0.9999999999999998    0.5090535525000001 O
   0.5000000000000000    0.3333333333333333    0.5090535525000001 O
   0.5000000000000001    0.6666666666666666    0.5090535525000001 O
   0.5000000000000000    0.9999999999999998    0.5090535525000001 O
   0.6666666666666666    0.3333333333333333    0.5090535525000000 O
   0.6666666666666667    0.6666666666666666    0.5090535525000001 O
   0.6666666666666666    0.9999999999999998    0.5090535525000001 O
   0.8333333333333333    0.3333333333333333    0.5090535525000000 O
   0.8333333333333334    0.6666666666666666    0.5090535525000000 O
   0.8333333333333333    0.9999999999999998    0.5090535525000001 O
   0.0000000000000000    0.1666666666666666    0.4909464475000000 O
   0.0000000000000000    0.4999999999999999    0.4909464475000000 O
   0.0000000000000000    0.8333333333333333    0.4909464475000000 O
   0.1666666666666667    0.1666666666666666    0.4909464475000000 O
   0.1666666666666667    0.4999999999999999    0.4909464475000000 O
   0.1666666666666667    0.8333333333333333    0.4909464475000000 O
   0.3333333333333333    0.1666666666666666    0.4909464475000000 O
   0.3333333333333333    0.4999999999999999    0.4909464475000000 O
   0.3333333333333333    0.8333333333333333    0.4909464475000000 O
   0.4999999999999999    0.1666666666666666    0.4909464475000001 O
   0.5000000000000000    0.4999999999999999    0.4909464475000000 O
   0.4999999999999999    0.8333333333333333    0.4909464475000000 O
   0.6666666666666666    0.1666666666666666    0.4909464475000000 O
   0.6666666666666666    0.4999999999999999    0.4909464475000001 O
   0.6666666666666666    0.8333333333333333    0.4909464475000000 O
   0.8333333333333333    0.1666666666666666    0.4909464475000000 O
   0.8333333333333333    0.4999999999999999    0.4909464475000000 O
   0.8333333333333333    0.8333333333333333    0.4909464475000001 O
   0.0000000000000000    0.0000000000000000    0.4076131141666668 O
   0.0000000000000000    0.3333333333333333    0.4076131141666668 O